

******************************************************************************
This program contains Ipopt, a library for large-scale nonlinear optimization.
 Ipopt is released as open source code under the Eclipse Public License (EPL).
         For more information visit https://github.com/coin-or/Ipopt
******************************************************************************

This is Ipopt version 3.14.11, running with linear solver MUMPS 5.5.1.

Number of nonzeros in equality constraint Jacobian...:       75
Number of nonzeros in inequality constraint Jacobian.:        0
Number of nonzeros in Lagrangian Hessian.............:     2799

Total number of variables............................:       75
                     variables with only lower bounds:        0
                variables with lower and upper bounds:       75
                     variables with only upper bounds:        0
Total number of equality constraints.................:        1
Total number of inequality constraints...............:        0
        inequality constraints with only lower bounds:        0
   inequality constraints with lower and upper bounds:        0
        inequality constraints with only upper bounds:        0

iter    objective    inf_pr   inf_du lg(mu)  ||d||  lg(rg) alpha_du alpha_pr  ls
   0  8.4839889e-01 2.50e-01 4.11e+00  -1.0 0.00e+00    -  0.00e+00 0.00e+00   0
   1  8.4031020e-01 1.11e-16 2.78e-15  -1.0 1.90e-02    -  1.00e+00 1.00e+00f  1
   2  8.4253822e-01 2.22e-16 2.91e-15  -1.7 1.23e-03    -  1.00e+00 1.00e+00f  1
   3  7.9104198e-01 6.66e-16 4.06e-01  -3.8 7.74e-03    -  8.05e-01 1.00e+00f  1
   4  7.6194881e-01 3.33e-16 8.02e-02  -3.8 4.88e-03    -  8.72e-01 1.00e+00f  1
   5  7.5134343e-01 3.33e-16 2.01e-15  -3.8 2.08e-03    -  1.00e+00 1.00e+00f  1
   6  7.4724109e-01 4.44e-16 5.14e-03  -5.7 1.22e-03    -  9.63e-01 1.00e+00f  1
   7  7.4627560e-01 2.22e-16 3.69e-04  -5.7 5.38e-04    -  1.00e+00 9.93e-01f  1
   8  7.4612612e-01 0.00e+00 1.74e-15  -5.7 2.54e-04    -  1.00e+00 1.00e+00f  1
   9  7.4609202e-01 2.22e-16 5.40e-05  -8.6 1.34e-04    -  9.99e-01 9.96e-01f  1
iter    objective    inf_pr   inf_du lg(mu)  ||d||  lg(rg) alpha_du alpha_pr  ls
  10  7.4609087e-01 2.22e-16 2.03e-15  -8.6 6.56e-05    -  1.00e+00 1.00e+00f  1
  11  7.4609069e-01 2.22e-16 1.70e-15  -8.6 3.22e-05    -  1.00e+00 1.00e+00f  1
  12  7.4609066e-01 2.22e-16 2.48e-15  -8.6 1.51e-05    -  1.00e+00 1.00e+00f  1
  13  7.4609065e-01 3.33e-16 1.76e-15  -8.6 5.92e-06    -  1.00e+00 1.00e+00h  1

Number of Iterations....: 13

                                   (scaled)                 (unscaled)
Objective...............:   7.4609065159556975e-01    7.4609065159556975e-01
Dual infeasibility......:   1.7559242193012984e-15    1.7559242193012984e-15
Constraint violation....:   3.3306690738754696e-16    3.3306690738754696e-16
Variable bound violation:   3.0384818422491103e-09    3.0384818422491103e-09
Complementarity.........:   7.4075424888127807e-09    7.4075424888127807e-09
Overall NLP error.......:   7.4075424888127807e-09    7.4075424888127807e-09


Number of objective function evaluations             = 14
Number of objective gradient evaluations             = 14
Number of equality constraint evaluations            = 14
Number of inequality constraint evaluations          = 0
Number of equality constraint Jacobian evaluations   = 14
Number of inequality constraint Jacobian evaluations = 0
Number of Lagrangian Hessian evaluations             = 13
Total seconds in IPOPT                               = 0.022

EXIT: Optimal Solution Found.
 
Ipopt 3.14.11: Optimal Solution Found
